mixintcount/benchmarks/random_v2l/4_4_158.smt2
(set-logic QF_LIA)
(set-info :ran/ran2.smt2)
(set-info :smt-lib-version 2.0)
(declare-fun x1 () Int)
(declare-fun x2 () Int)
(declare-fun x3 () Int)
(declare-fun x4 () Int)
(assert (<= (+ (* 3 x1) (* (- 6) x2) (* (- 6) x3) (* (- 2) x4) ) (- 30)))
(assert (<= (+ (* 2 x1) (* (- 5) x2) (* (- 10) x3) (* 4 x4) ) 39))
(assert (<= (+ (* (- 4) x1) (* (- 4) x2) (* (- 8) x3) (* 7 x4) ) 22))
(assert (<= (+ (* 8 x1) (* 0 x2) (* 7 x3) (* (- 5) x4) ) 18))
(assert (<= (+ (* (- 8) x1) (* (- 10) x2) (* 9 x3) (* 7 x4) ) (- 20)))
(assert (<= (+ (* 1 x1) (* 2 x2) (* 6 x3) (* (- 6) x4) ) (- 27)))
(assert (<= (+ (* (- 8) x1) (* 6 x2) (* 8 x3) (* (- 4) x4) ) 21))
(assert (<= (+ (* (- 6) x1) (* 6 x2) (* (- 4) x3) (* (- 7) x4) ) 13))
(assert (<= (+ (* 1 x1) (* 0 x2) (* 0 x3) (* 0 x4) ) 158))
(assert (<= (+ (* (- 1) x1) (* 0 x2) (* 0 x3) (* 0 x4) ) 158))
(assert (<= (+ (* 0 x1) (* 1 x2) (* 0 x3) (* 0 x4) ) 158))
(assert (<= (+ (* 0 x1) (* (- 1) x2) (* 0 x3) (* 0 x4) ) 158))
(assert (<= (+ (* 0 x1) (* 0 x2) (* 1 x3) (* 0 x4) ) 158))
(assert (<= (+ (* 0 x1) (* 0 x2) (* (- 1) x3) (* 0 x4) ) 158))
(assert (<= (+ (* 0 x1) (* 0 x2) (* 0 x3) (* 1 x4) ) 158))
(assert (<= (+ (* 0 x1) (* 0 x2) (* 0 x3) (* (- 1) x4) ) 158))
