mixintcount/benchmarks/random_v2l/4_4_158.in
16 6
#	x1	x2	x3	x4;		0 = Real; 1 = Integer
	1	1	1	1
1	3	-6	-6	-2	-30
1	2	-5	-10	4	39
1	-4	-4	-8	7	22
1	8	0	7	-5	18
1	-8	-10	9	7	-20
1	1	2	6	-6	-27
1	-8	6	8	-4	21
1	-6	6	-4	-7	13
1	1	0	0	0	158
1	-1	0	0	0	158
1	0	1	0	0	158
1	0	-1	0	0	158
1	0	0	1	0	158
1	0	0	-1	0	158
1	0	0	0	1	158
1	0	0	0	-1	158
